c defined variables: 33 34 35 36 37 38 39 40 41 42 43 44 45 46 47 48 49 50 51 52 53 54 55 56 57 58 59 60 61 62 63 64 65 66 67 68 69 70 71 72 73 74 75 76 77 78 79 80 81 82 83 84 85 86 87 88 89 90 91 92 93 94 95 96 97 98 99 100 101 102 103 104 105 106 107 108 109 110 111 112 113 114 115 116 117 118 119 120 121 122 123 124 125 126 127 128 129 130 131 132 133 134 135 136 137 138 139 140 141 142 143 144 145 146 147 148 149 150 151 152 153 154 155 156 157 158 159 160 161 162 163 164 165 166 167 179 180 181 182 183 184 185 186 187 188 189 190 191 192 193 194 195 196 197 198 199 200 201 202 203 204 205 206 207 208 209 210 211 212 213 214 215 216 217 218 219 220 221 222 223 224 225 226 227 228 229 230 231 232 233 234 235 236 237 238 239 240 241 242 243 244 245 246 247 248 249 250 251 252 253 254 255 256 257 258 259 260 261 262 263 264 265 266 267 268 269 270 271 272 273 274 275 276 277 278 279 280 281 282 283 284 285 286 290 291 292 293 294 295 296 297 298 
p cnf 1323 1984
a 1 2 3 4 5 6 7 8 9 10 11 12 13 14 15 16 17 18 19 20 21 22 23 24 25 26 27 28 29 30 31 32 171 172 173 174 175 176 177 178 0
e 33 34 35 36 37 38 39 40 41 42 43 44 45 46 47 48 49 50 51 52 53 54 55 56 57 58 59 60 61 62 63 64 65 66 67 68 69 70 71 72 73 74 75 76 77 78 79 80 81 82 83 84 85 86 87 88 89 90 91 92 93 94 95 96 97 98 99 100 101 102 103 104 105 106 107 108 109 110 111 112 113 114 115 116 117 118 119 120 121 122 123 124 125 126 127 128 129 130 131 132 133 134 135 136 137 138 139 140 141 142 143 144 145 146 147 148 149 150 151 152 153 154 155 156 157 158 159 160 161 162 163 164 165 166 167 179 180 181 182 183 184 185 186 187 188 189 190 191 192 193 194 195 196 197 198 199 200 201 202 203 204 205 206 207 208 209 210 211 212 213 214 215 216 217 218 219 220 221 222 223 224 225 226 227 228 229 230 231 232 233 234 235 236 237 238 239 240 241 242 243 244 245 246 247 248 249 250 251 252 253 254 255 256 257 258 259 260 261 262 263 264 265 266 267 268 269 270 271 272 273 274 275 276 277 278 279 280 281 282 283 284 285 286 290 291 292 293 294 295 296 297 298 1096 1097 1098 1099 1100 1101 1102 1103 1104 1105 1106 1107 1108 1109 1110 1111 1112 1113 1114 1115 1116 1117 1118 1119 1120 1121 1122 1123 1124 1125 1126 1127 1128 1129 1130 1131 1132 1133 1134 1135 1136 1137 1138 1139 1140 1141 1142 1143 1144 1145 1146 1147 1148 1149 1150 1151 1152 1153 1154 1155 1156 1157 1158 1159 1160 1161 1162 1163 1164 1165 1166 1167 1168 1169 1170 1171 1172 1173 1174 1175 1176 1177 1178 1179 1180 1181 1182 1183 1184 1185 1186 1187 1188 1189 1190 1191 1192 1193 1194 1195 1196 1197 1198 1199 1200 1201 1202 1203 1204 1205 1206 1207 1208 1209 1210 1211 1212 1213 1214 1215 1216 1217 1218 1219 1220 1221 1222 1223 1224 1225 1226 1227 1228 1229 1230 1231 1232 1233 1234 1235 1236 1237 1238 1239 1240 1241 1242 1243 1244 1245 1246 1247 1248 1249 1250 1251 1252 1253 1254 1255 1256 1257 1258 1259 1260 1261 1262 1263 1264 1265 1266 1267 1268 1269 1270 1271 1272 1273 1274 1275 1276 1277 1278 1279 1280 1281 1282 1283 1284 1285 1286 1287 1288 1289 1290 1291 1292 1293 1294 1295 1296 1297 1298 1299 1300 1301 1302 1303 1304 1305 1306 1307 1308 1309 1310 1311 1312 1313 1314 1315 1316 1317 1318 1319 1320 1321 1322 1323 0
d 170 171 172 173 174 175 176 177 178 0
d 169 173 174 175 176 177 178 171 172 0
d 168 173 174 175 176 177 178 171 172 0
d 287 1 2 3 4 5 6 7 8 9 10 11 12 13 14 15 16 17 18 19 20 21 22 23 24 25 26 27 28 29 30 31 32 171 172 173 174 175 176 177 178 0
d 288 1 2 3 4 5 6 7 8 9 10 11 12 13 14 15 16 17 18 19 20 21 22 23 24 25 26 27 28 29 30 31 32 171 172 173 174 175 176 177 178 0
d 289 1 2 3 4 5 6 7 8 9 10 11 12 13 14 15 16 17 18 19 20 21 22 23 24 25 26 27 28 29 30 31 32 171 172 173 174 175 176 177 178 0
1096 -33 0
-1096 33 0
1097 -34 0
-1097 34 0
-1098 -35 0
1098 35 0
1099 -36 0
-1099 36 0
1100 -37 0
-1100 37 0
-1101 -38 0
1101 38 0
1102 -39 0
-1102 39 0
1103 -40 0
-1103 40 0
-1104 -41 0
1104 41 0
-12 -42 0
12 42 0
-1105 -43 0
1105 43 0
-11 -44 0
11 44 0
-1106 -45 0
1106 45 0
-10 -46 0
10 46 0
-1107 -47 0
1107 47 0
-9 -48 0
9 48 0
-1108 -49 0
1108 49 0
-49 -50 0
49 50 0
1109 -51 0
-1109 51 0
1111 -52 0
-1111 52 0
1113 -53 0
-1113 53 0
-1116 -54 0
1116 54 0
1117 -55 0
-1117 55 0
1118 -56 0
-1118 56 0
-1119 -57 0
1119 57 0
1120 -58 0
-1120 58 0
1121 -59 0
-1121 59 0
1122 -60 0
-1122 60 0
1123 -61 0
-1123 61 0
-1124 -62 0
1124 62 0
1125 -63 0
-1125 63 0
1126 -64 0
-1126 64 0
-1127 -65 0
1127 65 0
1128 -66 0
-1128 66 0
1129 -67 0
-1129 67 0
-1130 -68 0
1130 68 0
1131 -69 0
-1131 69 0
1132 -70 0
-1132 70 0
-1133 -71 0
1133 71 0
-8 -72 0
8 72 0
-1134 -73 0
1134 73 0
-7 -74 0
7 74 0
-1135 -75 0
1135 75 0
-6 -76 0
6 76 0
-1136 -77 0
1136 77 0
-5 -78 0
5 78 0
-1137 -79 0
1137 79 0
-79 -80 0
79 80 0
1138 -81 0
-1138 81 0
1140 -82 0
-1140 82 0
1142 -83 0
-1142 83 0
-1145 -84 0
1145 84 0
1146 -85 0
-1146 85 0
1147 -86 0
-1147 86 0
-1148 -87 0
1148 87 0
1149 -88 0
-1149 88 0
1150 -89 0
-1150 89 0
1151 -90 0
-1151 90 0
1152 -91 0
-1152 91 0
-1153 -92 0
1153 92 0
1154 -93 0
-1154 93 0
1155 -94 0
-1155 94 0
-1156 -95 0
1156 95 0
1157 -96 0
-1157 96 0
1158 -97 0
-1158 97 0
-1159 -98 0
1159 98 0
1160 -99 0
-1160 99 0
1161 -100 0
-1161 100 0
-1162 -101 0
1162 101 0
-4 -102 0
4 102 0
-1163 -103 0
1163 103 0
-3 -104 0
3 104 0
-1164 -105 0
1164 105 0
-2 -106 0
2 106 0
-1165 -107 0
1165 107 0
-1 -108 0
1 108 0
-1166 -109 0
1166 109 0
-109 -110 0
109 110 0
1167 -111 0
-1167 111 0
1169 -112 0
-1169 112 0
1171 -113 0
-1171 113 0
-1174 -114 0
1174 114 0
1175 -115 0
-1175 115 0
1176 -116 0
-1176 116 0
-1177 -117 0
1177 117 0
1178 -118 0
-1178 118 0
1179 -119 0
-1179 119 0
1180 -120 0
-1180 120 0
1181 -121 0
-1181 121 0
-1182 -122 0
1182 122 0
1183 -123 0
-1183 123 0
1184 -124 0
-1184 124 0
-1185 -125 0
1185 125 0
1186 -126 0
-1186 126 0
1187 -127 0
-1187 127 0
-1188 -128 0
1188 128 0
1189 -129 0
-1189 129 0
1190 -130 0
-1190 130 0
-1191 -131 0
1191 131 0
-16 -132 0
16 132 0
-1192 -133 0
1192 133 0
-15 -134 0
15 134 0
-1193 -135 0
1193 135 0
-14 -136 0
14 136 0
-1194 -137 0
1194 137 0
-13 -138 0
13 138 0
-1195 -139 0
1195 139 0
-139 -140 0
139 140 0
1196 -141 0
-1196 141 0
1198 -142 0
-1198 142 0
1200 -143 0
-1200 143 0
-1203 -144 0
1203 144 0
1204 -145 0
-1204 145 0
1205 -146 0
-1205 146 0
-1206 -147 0
1206 147 0
1207 -148 0
-1207 148 0
1208 -149 0
-1208 149 0
-144 -150 0
144 150 0
-1209 -151 0
1209 151 0
-54 -152 0
54 152 0
-1210 -153 0
1210 153 0
-84 -154 0
84 154 0
-1211 -155 0
1211 155 0
-114 -156 0
114 156 0
-1212 -157 0
1212 157 0
-157 -158 0
157 158 0
1213 -159 0
-1213 159 0
1215 -160 0
-1215 160 0
1217 -161 0
-1217 161 0
-1220 -162 0
1220 162 0
1221 -163 0
-1221 163 0
1222 -164 0
-1222 164 0
-1223 -165 0
1223 165 0
1224 -166 0
-1224 166 0
1225 -167 0
-1225 167 0
1183 -179 0
-1183 179 0
1184 -180 0
-1184 180 0
-1226 -181 0
1226 181 0
1186 -182 0
-1186 182 0
1187 -183 0
-1187 183 0
-1227 -184 0
1227 184 0
1189 -185 0
-1189 185 0
1190 -186 0
-1190 186 0
-1228 -187 0
1228 187 0
-16 -188 0
16 188 0
-1229 -189 0
1229 189 0
-15 -190 0
15 190 0
-1230 -191 0
1230 191 0
-14 -192 0
14 192 0
-1231 -193 0
1231 193 0
-13 -194 0
13 194 0
-1232 -195 0
1232 195 0
-195 -196 0
195 196 0
1233 -197 0
-1233 197 0
1235 -198 0
-1235 198 0
1237 -199 0
-1237 199 0
-1240 -200 0
1240 200 0
1204 -201 0
-1204 201 0
1205 -202 0
-1205 202 0
-1241 -203 0
1241 203 0
1242 -204 0
-1242 204 0
1243 -205 0
-1243 205 0
1096 -206 0
-1096 206 0
1097 -207 0
-1097 207 0
-1244 -208 0
1244 208 0
1099 -209 0
-1099 209 0
1100 -210 0
-1100 210 0
-1245 -211 0
1245 211 0
1102 -212 0
-1102 212 0
1103 -213 0
-1103 213 0
-1246 -214 0
1246 214 0
-12 -215 0
12 215 0
-1247 -216 0
1247 216 0
-11 -217 0
11 217 0
-1248 -218 0
1248 218 0
-10 -219 0
10 219 0
-1249 -220 0
1249 220 0
-9 -221 0
9 221 0
-1250 -222 0
1250 222 0
-222 -223 0
222 223 0
1251 -224 0
-1251 224 0
1253 -225 0
-1253 225 0
1255 -226 0
-1255 226 0
-1258 -227 0
1258 227 0
1117 -228 0
-1117 228 0
1118 -229 0
-1118 229 0
-1259 -230 0
1259 230 0
1260 -231 0
-1260 231 0
1261 -232 0
-1261 232 0
1125 -233 0
-1125 233 0
1126 -234 0
-1126 234 0
-1262 -235 0
1262 235 0
1128 -236 0
-1128 236 0
1129 -237 0
-1129 237 0
-1263 -238 0
1263 238 0
1131 -239 0
-1131 239 0
1132 -240 0
-1132 240 0
-1264 -241 0
1264 241 0
-8 -242 0
8 242 0
-1265 -243 0
1265 243 0
-7 -244 0
7 244 0
-1266 -245 0
1266 245 0
-6 -246 0
6 246 0
-1267 -247 0
1267 247 0
-5 -248 0
5 248 0
-1268 -249 0
1268 249 0
-249 -250 0
249 250 0
1269 -251 0
-1269 251 0
1271 -252 0
-1271 252 0
1273 -253 0
-1273 253 0
-1276 -254 0
1276 254 0
1146 -255 0
-1146 255 0
1147 -256 0
-1147 256 0
-1277 -257 0
1277 257 0
1278 -258 0
-1278 258 0
1279 -259 0
-1279 259 0
1154 -260 0
-1154 260 0
1155 -261 0
-1155 261 0
-1280 -262 0
1280 262 0
1157 -263 0
-1157 263 0
1158 -264 0
-1158 264 0
-1281 -265 0
1281 265 0
1160 -266 0
-1160 266 0
1161 -267 0
-1161 267 0
-1282 -268 0
1282 268 0
-4 -269 0
4 269 0
-1283 -270 0
1283 270 0
-3 -271 0
3 271 0
-1284 -272 0
1284 272 0
-2 -273 0
2 273 0
-1285 -274 0
1285 274 0
-1 -275 0
1 275 0
-1286 -276 0
1286 276 0
-276 -277 0
276 277 0
1287 -278 0
-1287 278 0
1289 -279 0
-1289 279 0
1291 -280 0
-1291 280 0
-1294 -281 0
1294 281 0
1175 -282 0
-1175 282 0
1176 -283 0
-1176 283 0
-1295 -284 0
1295 284 0
1296 -285 0
-1296 285 0
1297 -286 0
-1297 286 0
1299 -290 0
-1299 290 0
1302 -291 0
-1302 291 0
1305 -292 0
-1305 292 0
1308 -293 0
-1308 293 0
1311 -294 0
-1311 294 0
1314 -295 0
-1314 295 0
1317 -296 0
-1317 296 0
1320 -297 0
-1320 297 0
1323 -298 0
-1323 298 0
-33 -11 0
-33 27 0
11 -27 33 0
-34 11 0
-34 -27 0
-11 27 34 0
-33 35 0
-34 35 0
-35 33 34 0
-36 -10 0
-36 26 0
10 -26 36 0
-37 10 0
-37 -26 0
-10 26 37 0
-36 38 0
-37 38 0
-38 36 37 0
-39 -9 0
-39 25 0
9 -25 39 0
-40 9 0
-40 -25 0
-9 25 40 0
-39 41 0
-40 41 0
-41 39 40 0
-12 -42 0
12 42 0
-42 43 0
-28 43 0
-43 42 28 0
-11 -44 0
11 44 0
-44 45 0
-27 45 0
-45 44 27 0
-10 -46 0
10 46 0
-46 47 0
-26 47 0
-47 46 26 0
-9 -48 0
9 48 0
-48 49 0
-25 49 0
-49 48 25 0
-49 -50 0
49 50 0
-51 -41 0
-51 -47 0
41 47 51 0
-52 -38 0
-52 -41 0
-52 -45 0
38 41 45 52 0
-53 -35 0
-53 -38 0
-53 -41 0
-53 -43 0
35 38 41 43 53 0
-50 54 0
-51 54 0
-52 54 0
-53 54 0
-54 50 51 52 53 0
-55 -12 0
-55 28 0
12 -28 55 0
-56 12 0
-56 -28 0
-12 28 56 0
-55 57 0
-56 57 0
-57 55 56 0
-58 -57 0
-58 -35 0
-58 -38 0
-58 -41 0
57 35 38 41 58 0
-59 -54 0
-59 -58 0
54 58 59 0
-60 -54 0
-60 59 0
54 -59 60 0
-61 54 0
-61 -59 0
-54 59 61 0
-60 62 0
-61 62 0
-62 60 61 0
-63 -7 0
-63 23 0
7 -23 63 0
-64 7 0
-64 -23 0
-7 23 64 0
-63 65 0
-64 65 0
-65 63 64 0
-66 -6 0
-66 22 0
6 -22 66 0
-67 6 0
-67 -22 0
-6 22 67 0
-66 68 0
-67 68 0
-68 66 67 0
-69 -5 0
-69 21 0
5 -21 69 0
-70 5 0
-70 -21 0
-5 21 70 0
-69 71 0
-70 71 0
-71 69 70 0
-8 -72 0
8 72 0
-72 73 0
-24 73 0
-73 72 24 0
-7 -74 0
7 74 0
-74 75 0
-23 75 0
-75 74 23 0
-6 -76 0
6 76 0
-76 77 0
-22 77 0
-77 76 22 0
-5 -78 0
5 78 0
-78 79 0
-21 79 0
-79 78 21 0
-79 -80 0
79 80 0
-81 -71 0
-81 -77 0
71 77 81 0
-82 -68 0
-82 -71 0
-82 -75 0
68 71 75 82 0
-83 -65 0
-83 -68 0
-83 -71 0
-83 -73 0
65 68 71 73 83 0
-80 84 0
-81 84 0
-82 84 0
-83 84 0
-84 80 81 82 83 0
-85 -8 0
-85 24 0
8 -24 85 0
-86 8 0
-86 -24 0
-8 24 86 0
-85 87 0
-86 87 0
-87 85 86 0
-88 -87 0
-88 -65 0
-88 -68 0
-88 -71 0
87 65 68 71 88 0
-89 -84 0
-89 -88 0
84 88 89 0
-90 -84 0
-90 89 0
84 -89 90 0
-91 84 0
-91 -89 0
-84 89 91 0
-90 92 0
-91 92 0
-92 90 91 0
-93 -3 0
-93 19 0
3 -19 93 0
-94 3 0
-94 -19 0
-3 19 94 0
-93 95 0
-94 95 0
-95 93 94 0
-96 -2 0
-96 18 0
2 -18 96 0
-97 2 0
-97 -18 0
-2 18 97 0
-96 98 0
-97 98 0
-98 96 97 0
-99 -1 0
-99 17 0
1 -17 99 0
-100 1 0
-100 -17 0
-1 17 100 0
-99 101 0
-100 101 0
-101 99 100 0
-4 -102 0
4 102 0
-102 103 0
-20 103 0
-103 102 20 0
-3 -104 0
3 104 0
-104 105 0
-19 105 0
-105 104 19 0
-2 -106 0
2 106 0
-106 107 0
-18 107 0
-107 106 18 0
-1 -108 0
1 108 0
-108 109 0
-17 109 0
-109 108 17 0
-109 -110 0
109 110 0
-111 -101 0
-111 -107 0
101 107 111 0
-112 -98 0
-112 -101 0
-112 -105 0
98 101 105 112 0
-113 -95 0
-113 -98 0
-113 -101 0
-113 -103 0
95 98 101 103 113 0
-110 114 0
-111 114 0
-112 114 0
-113 114 0
-114 110 111 112 113 0
-115 -4 0
-115 20 0
4 -20 115 0
-116 4 0
-116 -20 0
-4 20 116 0
-115 117 0
-116 117 0
-117 115 116 0
-118 -117 0
-118 -95 0
-118 -98 0
-118 -101 0
117 95 98 101 118 0
-119 -114 0
-119 -118 0
114 118 119 0
-120 -114 0
-120 119 0
114 -119 120 0
-121 114 0
-121 -119 0
-114 119 121 0
-120 122 0
-121 122 0
-122 120 121 0
-123 -15 0
-123 31 0
15 -31 123 0
-124 15 0
-124 -31 0
-15 31 124 0
-123 125 0
-124 125 0
-125 123 124 0
-126 -14 0
-126 30 0
14 -30 126 0
-127 14 0
-127 -30 0
-14 30 127 0
-126 128 0
-127 128 0
-128 126 127 0
-129 -13 0
-129 29 0
13 -29 129 0
-130 13 0
-130 -29 0
-13 29 130 0
-129 131 0
-130 131 0
-131 129 130 0
-16 -132 0
16 132 0
-132 133 0
-32 133 0
-133 132 32 0
-15 -134 0
15 134 0
-134 135 0
-31 135 0
-135 134 31 0
-14 -136 0
14 136 0
-136 137 0
-30 137 0
-137 136 30 0
-13 -138 0
13 138 0
-138 139 0
-29 139 0
-139 138 29 0
-139 -140 0
139 140 0
-141 -131 0
-141 -137 0
131 137 141 0
-142 -128 0
-142 -131 0
-142 -135 0
128 131 135 142 0
-143 -125 0
-143 -128 0
-143 -131 0
-143 -133 0
125 128 131 133 143 0
-140 144 0
-141 144 0
-142 144 0
-143 144 0
-144 140 141 142 143 0
-145 -16 0
-145 32 0
16 -32 145 0
-146 16 0
-146 -32 0
-16 32 146 0
-145 147 0
-146 147 0
-147 145 146 0
-148 -147 0
-148 -125 0
-148 -128 0
-148 -131 0
147 125 128 131 148 0
-149 -144 0
-149 -148 0
144 148 149 0
-144 -150 0
144 150 0
-150 151 0
-149 151 0
-151 150 149 0
-54 -152 0
54 152 0
-152 153 0
-59 153 0
-153 152 59 0
-84 -154 0
84 154 0
-154 155 0
-89 155 0
-155 154 89 0
-114 -156 0
114 156 0
-156 157 0
-119 157 0
-157 156 119 0
-157 -158 0
157 158 0
-159 -122 0
-159 -155 0
122 155 159 0
-160 -92 0
-160 -122 0
-160 -153 0
92 122 153 160 0
-161 -62 0
-161 -92 0
-161 -122 0
-161 -151 0
62 92 122 151 161 0
-158 162 0
-159 162 0
-160 162 0
-161 162 0
-162 158 159 160 161 0
-163 -144 0
-163 149 0
144 -149 163 0
-164 144 0
-164 -149 0
-144 149 164 0
-163 165 0
-164 165 0
-165 163 164 0
-166 -165 0
-166 -62 0
-166 -92 0
-166 -122 0
165 62 92 122 166 0
-167 -162 0
-167 -166 0
162 166 167 0
-179 -15 0
-179 31 0
15 -31 179 0
-180 15 0
-180 -31 0
-15 31 180 0
-179 181 0
-180 181 0
-181 179 180 0
-182 -14 0
-182 30 0
14 -30 182 0
-183 14 0
-183 -30 0
-14 30 183 0
-182 184 0
-183 184 0
-184 182 183 0
-185 -13 0
-185 29 0
13 -29 185 0
-186 13 0
-186 -29 0
-13 29 186 0
-185 187 0
-186 187 0
-187 185 186 0
-16 -188 0
16 188 0
-188 189 0
-32 189 0
-189 188 32 0
-15 -190 0
15 190 0
-190 191 0
-31 191 0
-191 190 31 0
-14 -192 0
14 192 0
-192 193 0
-30 193 0
-193 192 30 0
-13 -194 0
13 194 0
-194 195 0
-29 195 0
-195 194 29 0
-195 -196 0
195 196 0
-197 -187 0
-197 -193 0
187 193 197 0
-198 -184 0
-198 -187 0
-198 -191 0
184 187 191 198 0
-199 -181 0
-199 -184 0
-199 -187 0
-199 -189 0
181 184 187 189 199 0
-196 200 0
-197 200 0
-198 200 0
-199 200 0
-200 196 197 198 199 0
-201 -16 0
-201 32 0
16 -32 201 0
-202 16 0
-202 -32 0
-16 32 202 0
-201 203 0
-202 203 0
-203 201 202 0
-204 -203 0
-204 -181 0
-204 -184 0
-204 -187 0
203 181 184 187 204 0
-205 -200 0
-205 -204 0
200 204 205 0
-206 -11 0
-206 27 0
11 -27 206 0
-207 11 0
-207 -27 0
-11 27 207 0
-206 208 0
-207 208 0
-208 206 207 0
-209 -10 0
-209 26 0
10 -26 209 0
-210 10 0
-210 -26 0
-10 26 210 0
-209 211 0
-210 211 0
-211 209 210 0
-212 -9 0
-212 25 0
9 -25 212 0
-213 9 0
-213 -25 0
-9 25 213 0
-212 214 0
-213 214 0
-214 212 213 0
-12 -215 0
12 215 0
-215 216 0
-28 216 0
-216 215 28 0
-11 -217 0
11 217 0
-217 218 0
-27 218 0
-218 217 27 0
-10 -219 0
10 219 0
-219 220 0
-26 220 0
-220 219 26 0
-9 -221 0
9 221 0
-221 222 0
-25 222 0
-222 221 25 0
-222 -223 0
222 223 0
-224 -214 0
-224 -220 0
214 220 224 0
-225 -211 0
-225 -214 0
-225 -218 0
211 214 218 225 0
-226 -208 0
-226 -211 0
-226 -214 0
-226 -216 0
208 211 214 216 226 0
-223 227 0
-224 227 0
-225 227 0
-226 227 0
-227 223 224 225 226 0
-228 -12 0
-228 28 0
12 -28 228 0
-229 12 0
-229 -28 0
-12 28 229 0
-228 230 0
-229 230 0
-230 228 229 0
-231 -230 0
-231 -208 0
-231 -211 0
-231 -214 0
230 208 211 214 231 0
-232 -227 0
-232 -231 0
227 231 232 0
-233 -7 0
-233 23 0
7 -23 233 0
-234 7 0
-234 -23 0
-7 23 234 0
-233 235 0
-234 235 0
-235 233 234 0
-236 -6 0
-236 22 0
6 -22 236 0
-237 6 0
-237 -22 0
-6 22 237 0
-236 238 0
-237 238 0
-238 236 237 0
-239 -5 0
-239 21 0
5 -21 239 0
-240 5 0
-240 -21 0
-5 21 240 0
-239 241 0
-240 241 0
-241 239 240 0
-8 -242 0
8 242 0
-242 243 0
-24 243 0
-243 242 24 0
-7 -244 0
7 244 0
-244 245 0
-23 245 0
-245 244 23 0
-6 -246 0
6 246 0
-246 247 0
-22 247 0
-247 246 22 0
-5 -248 0
5 248 0
-248 249 0
-21 249 0
-249 248 21 0
-249 -250 0
249 250 0
-251 -241 0
-251 -247 0
241 247 251 0
-252 -238 0
-252 -241 0
-252 -245 0
238 241 245 252 0
-253 -235 0
-253 -238 0
-253 -241 0
-253 -243 0
235 238 241 243 253 0
-250 254 0
-251 254 0
-252 254 0
-253 254 0
-254 250 251 252 253 0
-255 -8 0
-255 24 0
8 -24 255 0
-256 8 0
-256 -24 0
-8 24 256 0
-255 257 0
-256 257 0
-257 255 256 0
-258 -257 0
-258 -235 0
-258 -238 0
-258 -241 0
257 235 238 241 258 0
-259 -254 0
-259 -258 0
254 258 259 0
-260 -3 0
-260 19 0
3 -19 260 0
-261 3 0
-261 -19 0
-3 19 261 0
-260 262 0
-261 262 0
-262 260 261 0
-263 -2 0
-263 18 0
2 -18 263 0
-264 2 0
-264 -18 0
-2 18 264 0
-263 265 0
-264 265 0
-265 263 264 0
-266 -1 0
-266 17 0
1 -17 266 0
-267 1 0
-267 -17 0
-1 17 267 0
-266 268 0
-267 268 0
-268 266 267 0
-4 -269 0
4 269 0
-269 270 0
-20 270 0
-270 269 20 0
-3 -271 0
3 271 0
-271 272 0
-19 272 0
-272 271 19 0
-2 -273 0
2 273 0
-273 274 0
-18 274 0
-274 273 18 0
-1 -275 0
1 275 0
-275 276 0
-17 276 0
-276 275 17 0
-276 -277 0
276 277 0
-278 -268 0
-278 -274 0
268 274 278 0
-279 -265 0
-279 -268 0
-279 -272 0
265 268 272 279 0
-280 -262 0
-280 -265 0
-280 -268 0
-280 -270 0
262 265 268 270 280 0
-277 281 0
-278 281 0
-279 281 0
-280 281 0
-281 277 278 279 280 0
-282 -4 0
-282 20 0
4 -20 282 0
-283 4 0
-283 -20 0
-4 20 283 0
-282 284 0
-283 284 0
-284 282 283 0
-285 -284 0
-285 -262 0
-285 -265 0
-285 -268 0
284 262 265 268 285 0
-286 -281 0
-286 -285 0
281 285 286 0
-287 -167 168 0
-287 167 -168 0
287 -167 -168 0
287 167 168 0
-288 -166 170 0
-288 166 -170 0
288 -166 -170 0
288 166 170 0
-289 -162 169 0
-289 162 -169 0
289 -162 -169 0
289 162 169 0
-287 -288 -289 290 0
-290 287 0
-290 288 0
-290 289 0
-200 -171 -291 0
-200 171 291 0
200 -171 291 0
200 171 -291 0
-205 -172 -292 0
-205 172 292 0
205 -172 292 0
205 172 -292 0
-227 -173 -293 0
-227 173 293 0
227 -173 293 0
227 173 -293 0
-232 -174 -294 0
-232 174 294 0
232 -174 294 0
232 174 -294 0
-254 -175 -295 0
-254 175 295 0
254 -175 295 0
254 175 -295 0
-259 -176 -296 0
-259 176 296 0
259 -176 296 0
259 176 -296 0
-281 -177 -297 0
-281 177 297 0
281 -177 297 0
281 177 -297 0
-286 -178 -298 0
-286 178 298 0
286 -178 298 0
286 178 -298 0
291 292 293 294 295 296 297 298 290 0
-11 -1096 0
27 -1096 0
11 -27 1096 0
11 -1097 0
-27 -1097 0
-11 27 1097 0
-33 -1098 0
-34 -1098 0
33 34 1098 0
-10 -1099 0
26 -1099 0
10 -26 1099 0
10 -1100 0
-26 -1100 0
-10 26 1100 0
-36 -1101 0
-37 -1101 0
36 37 1101 0
-9 -1102 0
25 -1102 0
9 -25 1102 0
9 -1103 0
-25 -1103 0
-9 25 1103 0
-39 -1104 0
-40 -1104 0
39 40 1104 0
-28 -1105 0
-42 -1105 0
28 42 1105 0
-27 -1106 0
-44 -1106 0
27 44 1106 0
-26 -1107 0
-46 -1107 0
26 46 1107 0
-25 -1108 0
-48 -1108 0
25 48 1108 0
-41 -1109 0
-47 -1109 0
41 47 1109 0
-38 -1110 0
-41 -1110 0
38 41 1110 0
-45 -1111 0
1110 -1111 0
45 -1110 1111 0
-35 -1112 0
1110 -1112 0
35 -1110 1112 0
-43 -1113 0
1112 -1113 0
43 -1112 1113 0
-50 -1114 0
-51 -1114 0
50 51 1114 0
-52 -1115 0
-53 -1115 0
52 53 1115 0
1114 -1116 0
1115 -1116 0
-1114 -1115 1116 0
-12 -1117 0
28 -1117 0
12 -28 1117 0
12 -1118 0
-28 -1118 0
-12 28 1118 0
-55 -1119 0
-56 -1119 0
55 56 1119 0
-57 -1120 0
1112 -1120 0
57 -1112 1120 0
-54 -1121 0
-58 -1121 0
54 58 1121 0
-54 -1122 0
59 -1122 0
54 -59 1122 0
54 -1123 0
-59 -1123 0
-54 59 1123 0
-60 -1124 0
-61 -1124 0
60 61 1124 0
-7 -1125 0
23 -1125 0
7 -23 1125 0
7 -1126 0
-23 -1126 0
-7 23 1126 0
-63 -1127 0
-64 -1127 0
63 64 1127 0
-6 -1128 0
22 -1128 0
6 -22 1128 0
6 -1129 0
-22 -1129 0
-6 22 1129 0
-66 -1130 0
-67 -1130 0
66 67 1130 0
-5 -1131 0
21 -1131 0
5 -21 1131 0
5 -1132 0
-21 -1132 0
-5 21 1132 0
-69 -1133 0
-70 -1133 0
69 70 1133 0
-24 -1134 0
-72 -1134 0
24 72 1134 0
-23 -1135 0
-74 -1135 0
23 74 1135 0
-22 -1136 0
-76 -1136 0
22 76 1136 0
-21 -1137 0
-78 -1137 0
21 78 1137 0
-71 -1138 0
-77 -1138 0
71 77 1138 0
-68 -1139 0
-71 -1139 0
68 71 1139 0
-75 -1140 0
1139 -1140 0
75 -1139 1140 0
-65 -1141 0
1139 -1141 0
65 -1139 1141 0
-73 -1142 0
1141 -1142 0
73 -1141 1142 0
-80 -1143 0
-81 -1143 0
80 81 1143 0
-82 -1144 0
-83 -1144 0
82 83 1144 0
1143 -1145 0
1144 -1145 0
-1143 -1144 1145 0
-8 -1146 0
24 -1146 0
8 -24 1146 0
8 -1147 0
-24 -1147 0
-8 24 1147 0
-85 -1148 0
-86 -1148 0
85 86 1148 0
-87 -1149 0
1141 -1149 0
87 -1141 1149 0
-84 -1150 0
-88 -1150 0
84 88 1150 0
-84 -1151 0
89 -1151 0
84 -89 1151 0
84 -1152 0
-89 -1152 0
-84 89 1152 0
-90 -1153 0
-91 -1153 0
90 91 1153 0
-3 -1154 0
19 -1154 0
3 -19 1154 0
3 -1155 0
-19 -1155 0
-3 19 1155 0
-93 -1156 0
-94 -1156 0
93 94 1156 0
-2 -1157 0
18 -1157 0
2 -18 1157 0
2 -1158 0
-18 -1158 0
-2 18 1158 0
-96 -1159 0
-97 -1159 0
96 97 1159 0
-1 -1160 0
17 -1160 0
1 -17 1160 0
1 -1161 0
-17 -1161 0
-1 17 1161 0
-99 -1162 0
-100 -1162 0
99 100 1162 0
-20 -1163 0
-102 -1163 0
20 102 1163 0
-19 -1164 0
-104 -1164 0
19 104 1164 0
-18 -1165 0
-106 -1165 0
18 106 1165 0
-17 -1166 0
-108 -1166 0
17 108 1166 0
-101 -1167 0
-107 -1167 0
101 107 1167 0
-98 -1168 0
-101 -1168 0
98 101 1168 0
-105 -1169 0
1168 -1169 0
105 -1168 1169 0
-95 -1170 0
1168 -1170 0
95 -1168 1170 0
-103 -1171 0
1170 -1171 0
103 -1170 1171 0
-110 -1172 0
-111 -1172 0
110 111 1172 0
-112 -1173 0
-113 -1173 0
112 113 1173 0
1172 -1174 0
1173 -1174 0
-1172 -1173 1174 0
-4 -1175 0
20 -1175 0
4 -20 1175 0
4 -1176 0
-20 -1176 0
-4 20 1176 0
-115 -1177 0
-116 -1177 0
115 116 1177 0
-117 -1178 0
1170 -1178 0
117 -1170 1178 0
-114 -1179 0
-118 -1179 0
114 118 1179 0
-114 -1180 0
119 -1180 0
114 -119 1180 0
114 -1181 0
-119 -1181 0
-114 119 1181 0
-120 -1182 0
-121 -1182 0
120 121 1182 0
-15 -1183 0
31 -1183 0
15 -31 1183 0
15 -1184 0
-31 -1184 0
-15 31 1184 0
-123 -1185 0
-124 -1185 0
123 124 1185 0
-14 -1186 0
30 -1186 0
14 -30 1186 0
14 -1187 0
-30 -1187 0
-14 30 1187 0
-126 -1188 0
-127 -1188 0
126 127 1188 0
-13 -1189 0
29 -1189 0
13 -29 1189 0
13 -1190 0
-29 -1190 0
-13 29 1190 0
-129 -1191 0
-130 -1191 0
129 130 1191 0
-32 -1192 0
-132 -1192 0
32 132 1192 0
-31 -1193 0
-134 -1193 0
31 134 1193 0
-30 -1194 0
-136 -1194 0
30 136 1194 0
-29 -1195 0
-138 -1195 0
29 138 1195 0
-131 -1196 0
-137 -1196 0
131 137 1196 0
-128 -1197 0
-131 -1197 0
128 131 1197 0
-135 -1198 0
1197 -1198 0
135 -1197 1198 0
-125 -1199 0
1197 -1199 0
125 -1197 1199 0
-133 -1200 0
1199 -1200 0
133 -1199 1200 0
-140 -1201 0
-141 -1201 0
140 141 1201 0
-142 -1202 0
-143 -1202 0
142 143 1202 0
1201 -1203 0
1202 -1203 0
-1201 -1202 1203 0
-16 -1204 0
32 -1204 0
16 -32 1204 0
16 -1205 0
-32 -1205 0
-16 32 1205 0
-145 -1206 0
-146 -1206 0
145 146 1206 0
-147 -1207 0
1199 -1207 0
147 -1199 1207 0
-144 -1208 0
-148 -1208 0
144 148 1208 0
-149 -1209 0
-150 -1209 0
149 150 1209 0
-59 -1210 0
-152 -1210 0
59 152 1210 0
-89 -1211 0
-154 -1211 0
89 154 1211 0
-119 -1212 0
-156 -1212 0
119 156 1212 0
-122 -1213 0
-155 -1213 0
122 155 1213 0
-92 -1214 0
-122 -1214 0
92 122 1214 0
-153 -1215 0
1214 -1215 0
153 -1214 1215 0
-62 -1216 0
1214 -1216 0
62 -1214 1216 0
-151 -1217 0
1216 -1217 0
151 -1216 1217 0
-158 -1218 0
-159 -1218 0
158 159 1218 0
-160 -1219 0
-161 -1219 0
160 161 1219 0
1218 -1220 0
1219 -1220 0
-1218 -1219 1220 0
-144 -1221 0
149 -1221 0
144 -149 1221 0
144 -1222 0
-149 -1222 0
-144 149 1222 0
-163 -1223 0
-164 -1223 0
163 164 1223 0
-165 -1224 0
1216 -1224 0
165 -1216 1224 0
-162 -1225 0
-166 -1225 0
162 166 1225 0
-179 -1226 0
-180 -1226 0
179 180 1226 0
-182 -1227 0
-183 -1227 0
182 183 1227 0
-185 -1228 0
-186 -1228 0
185 186 1228 0
-32 -1229 0
-188 -1229 0
32 188 1229 0
-31 -1230 0
-190 -1230 0
31 190 1230 0
-30 -1231 0
-192 -1231 0
30 192 1231 0
-29 -1232 0
-194 -1232 0
29 194 1232 0
-187 -1233 0
-193 -1233 0
187 193 1233 0
-184 -1234 0
-187 -1234 0
184 187 1234 0
-191 -1235 0
1234 -1235 0
191 -1234 1235 0
-181 -1236 0
1234 -1236 0
181 -1234 1236 0
-189 -1237 0
1236 -1237 0
189 -1236 1237 0
-196 -1238 0
-197 -1238 0
196 197 1238 0
-198 -1239 0
-199 -1239 0
198 199 1239 0
1238 -1240 0
1239 -1240 0
-1238 -1239 1240 0
-201 -1241 0
-202 -1241 0
201 202 1241 0
-203 -1242 0
1236 -1242 0
203 -1236 1242 0
-200 -1243 0
-204 -1243 0
200 204 1243 0
-206 -1244 0
-207 -1244 0
206 207 1244 0
-209 -1245 0
-210 -1245 0
209 210 1245 0
-212 -1246 0
-213 -1246 0
212 213 1246 0
-28 -1247 0
-215 -1247 0
28 215 1247 0
-27 -1248 0
-217 -1248 0
27 217 1248 0
-26 -1249 0
-219 -1249 0
26 219 1249 0
-25 -1250 0
-221 -1250 0
25 221 1250 0
-214 -1251 0
-220 -1251 0
214 220 1251 0
-211 -1252 0
-214 -1252 0
211 214 1252 0
-218 -1253 0
1252 -1253 0
218 -1252 1253 0
-208 -1254 0
1252 -1254 0
208 -1252 1254 0
-216 -1255 0
1254 -1255 0
216 -1254 1255 0
-223 -1256 0
-224 -1256 0
223 224 1256 0
-225 -1257 0
-226 -1257 0
225 226 1257 0
1256 -1258 0
1257 -1258 0
-1256 -1257 1258 0
-228 -1259 0
-229 -1259 0
228 229 1259 0
-230 -1260 0
1254 -1260 0
230 -1254 1260 0
-227 -1261 0
-231 -1261 0
227 231 1261 0
-233 -1262 0
-234 -1262 0
233 234 1262 0
-236 -1263 0
-237 -1263 0
236 237 1263 0
-239 -1264 0
-240 -1264 0
239 240 1264 0
-24 -1265 0
-242 -1265 0
24 242 1265 0
-23 -1266 0
-244 -1266 0
23 244 1266 0
-22 -1267 0
-246 -1267 0
22 246 1267 0
-21 -1268 0
-248 -1268 0
21 248 1268 0
-241 -1269 0
-247 -1269 0
241 247 1269 0
-238 -1270 0
-241 -1270 0
238 241 1270 0
-245 -1271 0
1270 -1271 0
245 -1270 1271 0
-235 -1272 0
1270 -1272 0
235 -1270 1272 0
-243 -1273 0
1272 -1273 0
243 -1272 1273 0
-250 -1274 0
-251 -1274 0
250 251 1274 0
-252 -1275 0
-253 -1275 0
252 253 1275 0
1274 -1276 0
1275 -1276 0
-1274 -1275 1276 0
-255 -1277 0
-256 -1277 0
255 256 1277 0
-257 -1278 0
1272 -1278 0
257 -1272 1278 0
-254 -1279 0
-258 -1279 0
254 258 1279 0
-260 -1280 0
-261 -1280 0
260 261 1280 0
-263 -1281 0
-264 -1281 0
263 264 1281 0
-266 -1282 0
-267 -1282 0
266 267 1282 0
-20 -1283 0
-269 -1283 0
20 269 1283 0
-19 -1284 0
-271 -1284 0
19 271 1284 0
-18 -1285 0
-273 -1285 0
18 273 1285 0
-17 -1286 0
-275 -1286 0
17 275 1286 0
-268 -1287 0
-274 -1287 0
268 274 1287 0
-265 -1288 0
-268 -1288 0
265 268 1288 0
-272 -1289 0
1288 -1289 0
272 -1288 1289 0
-262 -1290 0
1288 -1290 0
262 -1288 1290 0
-270 -1291 0
1290 -1291 0
270 -1290 1291 0
-277 -1292 0
-278 -1292 0
277 278 1292 0
-279 -1293 0
-280 -1293 0
279 280 1293 0
1292 -1294 0
1293 -1294 0
-1292 -1293 1294 0
-282 -1295 0
-283 -1295 0
282 283 1295 0
-284 -1296 0
1290 -1296 0
284 -1290 1296 0
-281 -1297 0
-285 -1297 0
281 285 1297 0
287 -1298 0
288 -1298 0
-287 -288 1298 0
289 -1299 0
1298 -1299 0
-289 -1298 1299 0
-171 -1300 0
-200 -1300 0
171 200 1300 0
171 -1301 0
200 -1301 0
-171 -200 1301 0
-1300 -1302 0
-1301 -1302 0
1300 1301 1302 0
-172 -1303 0
-205 -1303 0
172 205 1303 0
172 -1304 0
205 -1304 0
-172 -205 1304 0
-1303 -1305 0
-1304 -1305 0
1303 1304 1305 0
-173 -1306 0
-227 -1306 0
173 227 1306 0
173 -1307 0
227 -1307 0
-173 -227 1307 0
-1306 -1308 0
-1307 -1308 0
1306 1307 1308 0
-174 -1309 0
-232 -1309 0
174 232 1309 0
174 -1310 0
232 -1310 0
-174 -232 1310 0
-1309 -1311 0
-1310 -1311 0
1309 1310 1311 0
-175 -1312 0
-254 -1312 0
175 254 1312 0
175 -1313 0
254 -1313 0
-175 -254 1313 0
-1312 -1314 0
-1313 -1314 0
1312 1313 1314 0
-176 -1315 0
-259 -1315 0
176 259 1315 0
176 -1316 0
259 -1316 0
-176 -259 1316 0
-1315 -1317 0
-1316 -1317 0
1315 1316 1317 0
-177 -1318 0
-281 -1318 0
177 281 1318 0
177 -1319 0
281 -1319 0
-177 -281 1319 0
-1318 -1320 0
-1319 -1320 0
1318 1319 1320 0
-178 -1321 0
-286 -1321 0
178 286 1321 0
178 -1322 0
286 -1322 0
-178 -286 1322 0
-1321 -1323 0
-1322 -1323 0
1321 1322 1323 0
